
Gurobi 10.0.2 (linux64) logging started Thu Sep  7 10:02:53 2023

Set parameter LogFile to value "../surrogate_problem/log/surrogate2_32.log"
Set parameter Threads to value 30
Gurobi Optimizer version 10.0.2 build v10.0.2rc0 (linux64)

CPU model: Intel(R) Xeon(R) Platinum 8280 CPU @ 2.70GHz, instruction set [SSE2|AVX|AVX2|AVX512]
Thread count: 112 physical cores, 112 logical processors, using up to 30 threads

Optimize a model with 516 rows, 1025 columns and 88705 nonzeros
Model fingerprint: 0xdec9dd44
Variable types: 321 continuous, 704 integer (704 binary)
Coefficient statistics:
  Matrix range     [4e-06, 1e+05]
  Objective range  [5e-01, 4e+01]
  Bounds range     [1e+00, 1e+00]
  RHS range        [2e-02, 1e+05]
Found heuristic solution: objective 114509.45401
Presolve removed 298 rows and 298 columns
Presolve time: 0.05s
Presolved: 218 rows, 727 columns, 32224 nonzeros
Variable types: 122 continuous, 605 integer (605 binary)

Root relaxation: objective 9.184646e+04, 106 iterations, 0.00 seconds (0.00 work units)

    Nodes    |    Current Node    |     Objective Bounds      |     Work
 Expl Unexpl |  Obj  Depth IntInf | Incumbent    BestBd   Gap | It/Node Time

     0     0 91846.4565    0   10 114509.454 91846.4565  19.8%     -    0s
H    0     0                    91846.492063 91846.4565  0.00%     -    0s
     0     0 91846.4565    0   10 91846.4921 91846.4565  0.00%     -    0s

Explored 1 nodes (106 simplex iterations) in 0.10 seconds (0.06 work units)
Thread count was 30 (of 112 available processors)

Solution count 2: 91846.5 114509 

Optimal solution found (tolerance 1.00e-04)
Best objective 9.184649206332e+04, best bound 9.184649206332e+04, gap 0.0000%

Gurobi 10.0.2 (linux64) logging started Fri Sep  8 15:20:27 2023

Set parameter LogFile to value "../surrogate_problem/log/surrogate2_32.log"
Gurobi Optimizer version 10.0.2 build v10.0.2rc0 (linux64)

CPU model: Intel(R) Xeon(R) Platinum 8280 CPU @ 2.70GHz, instruction set [SSE2|AVX|AVX2|AVX512]
Thread count: 112 physical cores, 112 logical processors, using up to 30 threads

Optimize a model with 516 rows, 1025 columns and 88705 nonzeros
Model fingerprint: 0xdec9dd44
Variable types: 321 continuous, 704 integer (704 binary)
Coefficient statistics:
  Matrix range     [4e-06, 1e+05]
  Objective range  [5e-01, 4e+01]
  Bounds range     [1e+00, 1e+00]
  RHS range        [2e-02, 1e+05]
Found heuristic solution: objective 114509.45401
Presolve removed 298 rows and 298 columns
Presolve time: 0.05s
Presolved: 218 rows, 727 columns, 32224 nonzeros
Variable types: 122 continuous, 605 integer (605 binary)

Root relaxation: objective 9.184646e+04, 106 iterations, 0.00 seconds (0.00 work units)

    Nodes    |    Current Node    |     Objective Bounds      |     Work
 Expl Unexpl |  Obj  Depth IntInf | Incumbent    BestBd   Gap | It/Node Time

     0     0 91846.4565    0   10 114509.454 91846.4565  19.8%     -    0s
H    0     0                    91846.492063 91846.4565  0.00%     -    0s
     0     0 91846.4565    0   10 91846.4921 91846.4565  0.00%     -    0s

Explored 1 nodes (106 simplex iterations) in 0.12 seconds (0.06 work units)
Thread count was 30 (of 112 available processors)

Solution count 2: 91846.5 114509 

Optimal solution found (tolerance 1.00e-04)
Best objective 9.184649206332e+04, best bound 9.184649206332e+04, gap 0.0000%
